76 76
32 36
6 26
2 21
35 68
1 28
1 57
13 16
30 40
22 76
28 32
33 34
4 14
10 46
15 23
33 71
27 35
30 69
34 18
16 15
24 61
2 72
26 47
14 60
22 8
14 62
9 25
7 22
19 39
38 54
7 66
29 29
3 7
36 10
4 55
16 3
27 45
25 48
10 53
11 41
28 31
21 2
18 44
32 75
35 24
21 65
5 19
29 1
31 4
18 50
38 51
23 42
31 27
17 64
6 70
13 5
5 11
23 9
11 59
17 56
37 49
37 52
12 63
25 12
9 6
26 38
3 20
34 13
20 30
20 74
36 73
8 58
12 43
19 17
8 33
15 67
24 37
